NumberOfAtoms    16           # Number of atoms
NumberOfSpecies  3           # Number of species

%block ChemicalSpeciesLabel
 1 6 C
 2 8 O
 3 1 H
%endblock ChemicalSpeciesLabel

#(3) Lattice, coordinates, k-sampling

LatticeConstant       1.000000000 Ang
%block LatticeVectors
   20.000000000     0.000000000     0.000000000
    0.000000000    20.000000000     0.000000000
    0.000000000     0.000000000    20.000000000
%endblock LatticeVectors

AtomicCoordinatesFormat Ang
%block AtomicCoordinatesAndAtomicSpecies
    11.985098000     9.817554000    10.154310000    1    1
    11.449433000    11.098606000    10.148877000    1    2
    11.148526000     8.719171000     9.971641000    1    3
    10.081808000    11.279859000     9.962906000    1    4
     9.786235000     8.903704000     9.782330000    1    5
     9.236608000    10.188370000     9.775088000    1    6
     7.753738000    10.383183000     9.571727000    1    7
     6.952945000     9.667283000    10.514729000    2    8
    13.047055000     9.672742000    10.300319000    3    9
    12.092258000    11.956698000    10.293109000    3   10
    11.561352000     7.719111000     9.973416000    3   11
     9.668079000    12.280890000     9.962986000    3   12
     9.136748000     8.049090000     9.644455000    3   13
     7.514596000    11.451293000     9.593202000    3   14
     7.447292000     9.998573000     8.598030000    3   15
     7.235290000     9.911544000    11.401971000    3   16
%endblock AtomicCoordinatesAndAtomicSpecies
